unsat
(:binary-propagations  45
 :conflicts            1
 :final-checks         1
 :max-generation       1
 :max-memory           25.89
 :memory               21.51
 :mk-bool-var          2208
 :mk-clause            840
 :mk-clause-binary     2030
 :num-allocs           39746200
 :num-checks           1
 :propagations         45
 :quant-instantiations 470
 :restarts             1
 :rlimit-count         266533
 :time                 0.07)
